nK = 546;
nT = 4;
nI = 7;
L = 35;
TT = 133;
np = 1;
nc = 3;
b = [29, 44, 35, 50, 58, 33, 35];
d = [136, 70, 114, 124, 111, 85, 116];
m = [1.6, 1.6, 1.7, 2.2, 1.7, 2.5, 1.7];
pt = [0.22, 0.23, 0.31, 0.35];
st = [12.98, 13.34, 17.98, 21];
arc = {<1, 0, 1, 1, 0, 0, 0, [1, 1, 1, 1]>, <2, 1, 2, 1, 0, 0, 0, [1, 1, 1, 1]>, <3, 2, 3, 1, 0, 0, 0, [1, 1, 1, 1]>, <4, 3, 4, 1, 0, 0, 0, [1, 1, 1, 1]>, <5, 4, 5, 1, 0, 0, 0, [1, 1, 1, 1]>, <6, 5, 6, 1, 0, 0, 0, [1, 1, 1, 1]>, <7, 6, 7, 1, 0, 0, 0, [1, 1, 1, 1]>, <8, 7, 8, 1, 0, 0, 0, [1, 1, 1, 1]>, <9, 8, 9, 1, 0, 0, 0, [1, 1, 1, 1]>, <10, 9, 10, 1, 0, 0, 0, [1, 1, 1, 1]>, <11, 10, 11, 1, 0, 0, 0, [1, 1, 1, 1]>, <12, 11, 12, 1, 0, 0, 0, [1, 1, 1, 1]>, <13, 12, 13, 1, 0, 0, 0, [1, 1, 1, 1]>, <14, 13, 14, 1, 0, 0, 0, [1, 1, 1, 1]>, <15, 14, 15, 1, 0, 0, 0, [1, 1, 1, 1]>, <16, 15, 16, 1, 0, 0, 0, [1, 1, 1, 1]>, <17, 16, 17, 1, 0, 0, 0, [1, 1, 1, 1]>, <18, 17, 18, 1, 0, 0, 0, [1, 1, 1, 1]>, <19, 18, 19, 1, 0, 0, 0, [1, 1, 1, 1]>, <20, 19, 20, 1, 0, 0, 0, [1, 1, 1, 1]>, <21, 20, 21, 1, 0, 0, 0, [1, 1, 1, 1]>, <22, 21, 22, 1, 0, 0, 0, [1, 1, 1, 1]>, <23, 22, 23, 1, 0, 0, 0, [1, 1, 1, 1]>, <24, 23, 24, 1, 0, 0, 0, [1, 1, 1, 1]>, <25, 24, 25, 1, 0, 0, 0, [1, 1, 1, 1]>, <26, 25, 26, 1, 0, 0, 0, [1, 1, 1, 1]>, <27, 26, 27, 1, 0, 0, 0, [1, 1, 1, 1]>, <28, 27, 28, 1, 0, 0, 0, [1, 1, 1, 1]>, <29, 28, 29, 1, 0, 0, 0, [1, 1, 1, 1]>, <30, 29, 30, 1, 0, 0, 0, [1, 1, 1, 1]>, <31, 30, 31, 1, 0, 0, 0, [1, 1, 1, 1]>, <32, 31, 32, 1, 0, 0, 0, [1, 1, 1, 1]>, <33, 32, 33, 1, 0, 0, 0, [1, 1, 1, 1]>, <34, 33, 34, 1, 0, 0, 0, [1, 1, 1, 1]>, <35, 34, 35, 1, 0, 0, 0, [1, 1, 1, 1]>, <36, 3, 17, 14, 1, 1, 0, [1, 0, 1, 1]>, <37, 4, 18, 14, 1, 1, 0, [1, 0, 1, 1]>, <38, 5, 19, 14, 1, 1, 0, [1, 0, 1, 1]>, <39, 6, 20, 14, 1, 1, 0, [1, 0, 1, 1]>, <40, 12, 26, 14, 1, 1, 0, [1, 0, 1, 1]>, <41, 13, 27, 14, 1, 1, 0, [1, 0, 1, 1]>, <42, 14, 28, 14, 1, 1, 0, [1, 0, 1, 1]>, <43, 15, 29, 14, 1, 1, 0, [1, 0, 1, 1]>, <44, 17, 31, 14, 1, 1, 0, [1, 0, 1, 1]>, <45, 18, 32, 14, 1, 1, 0, [1, 0, 1, 1]>, <46, 19, 33, 14, 1, 1, 0, [1, 0, 1, 1]>, <47, 20, 34, 14, 1, 1, 0, [1, 0, 1, 1]>, <48, 21, 35, 14, 1, 1, 0, [1, 0, 1, 1]>, <49, 5, 17, 12, 2, 0, 0, [1, 1, 1, 0]>, <50, 6, 18, 12, 2, 0, 0, [1, 1, 1, 0]>, <51, 14, 26, 12, 2, 0, 0, [1, 1, 1, 0]>, <52, 15, 27, 12, 2, 0, 0, [1, 1, 1, 0]>, <53, 19, 31, 12, 2, 0, 0, [1, 1, 1, 0]>, <54, 20, 32, 12, 2, 0, 0, [1, 1, 1, 0]>, <55, 21, 33, 12, 2, 0, 0, [1, 1, 1, 0]>, <56, 22, 34, 12, 2, 0, 0, [1, 1, 1, 0]>, <57, 23, 35, 12, 2, 0, 0, [1, 1, 1, 0]>, <58, 5, 15, 10, 3, 0, 1, [1, 1, 1, 0]>, <59, 6, 16, 10, 3, 0, 1, [1, 1, 1, 0]>, <60, 14, 24, 10, 3, 0, 1, [1, 1, 1, 0]>, <61, 15, 25, 10, 3, 0, 1, [1, 1, 1, 0]>, <62, 21, 31, 10, 3, 0, 1, [1, 1, 1, 0]>, <63, 22, 32, 10, 3, 0, 1, [1, 1, 1, 0]>, <64, 23, 33, 10, 3, 0, 1, [1, 1, 1, 0]>, <65, 24, 34, 10, 3, 0, 1, [1, 1, 1, 0]>, <66, 4, 17, 13, 4, 0, 0, [0, 1, 1, 1]>, <67, 5, 18, 13, 4, 0, 0, [0, 1, 1, 1]>, <68, 6, 19, 13, 4, 0, 0, [0, 1, 1, 1]>, <69, 13, 26, 13, 4, 0, 0, [0, 1, 1, 1]>, <70, 14, 27, 13, 4, 0, 0, [0, 1, 1, 1]>, <71, 15, 28, 13, 4, 0, 0, [0, 1, 1, 1]>, <72, 18, 31, 13, 4, 0, 0, [0, 1, 1, 1]>, <73, 19, 32, 13, 4, 0, 0, [0, 1, 1, 1]>, <74, 20, 33, 13, 4, 0, 0, [0, 1, 1, 1]>, <75, 21, 34, 13, 4, 0, 0, [0, 1, 1, 1]>, <76, 22, 35, 13, 4, 0, 0, [0, 1, 1, 1]>, <77, 3, 17, 14, 5, 0, 0, [1, 1, 1, 0]>, <78, 4, 18, 14, 5, 0, 0, [1, 1, 1, 0]>, <79, 5, 19, 14, 5, 0, 0, [1, 1, 1, 0]>, <80, 6, 20, 14, 5, 0, 0, [1, 1, 1, 0]>, <81, 12, 26, 14, 5, 0, 0, [1, 1, 1, 0]>, <82, 13, 27, 14, 5, 0, 0, [1, 1, 1, 0]>, <83, 14, 28, 14, 5, 0, 0, [1, 1, 1, 0]>, <84, 15, 29, 14, 5, 0, 0, [1, 1, 1, 0]>, <85, 17, 31, 14, 5, 0, 0, [1, 1, 1, 0]>, <86, 18, 32, 14, 5, 0, 0, [1, 1, 1, 0]>, <87, 19, 33, 14, 5, 0, 0, [1, 1, 1, 0]>, <88, 20, 34, 14, 5, 0, 0, [1, 1, 1, 0]>, <89, 21, 35, 14, 5, 0, 0, [1, 1, 1, 0]>, <90, 3, 17, 14, 6, 0, 0, [1, 1, 1, 0]>, <91, 4, 18, 14, 6, 0, 0, [1, 1, 1, 0]>, <92, 5, 19, 14, 6, 0, 0, [1, 1, 1, 0]>, <93, 6, 20, 14, 6, 0, 0, [1, 1, 1, 0]>, <94, 12, 26, 14, 6, 0, 0, [1, 1, 1, 0]>, <95, 13, 27, 14, 6, 0, 0, [1, 1, 1, 0]>, <96, 14, 28, 14, 6, 0, 0, [1, 1, 1, 0]>, <97, 15, 29, 14, 6, 0, 0, [1, 1, 1, 0]>, <98, 17, 31, 14, 6, 0, 0, [1, 1, 1, 0]>, <99, 18, 32, 14, 6, 0, 0, [1, 1, 1, 0]>, <100, 19, 33, 14, 6, 0, 0, [1, 1, 1, 0]>, <101, 20, 34, 14, 6, 0, 0, [1, 1, 1, 0]>, <102, 21, 35, 14, 6, 0, 0, [1, 1, 1, 0]>, <103, 2, 17, 15, 7, 0, 0, [1, 1, 0, 1]>, <104, 3, 18, 15, 7, 0, 0, [1, 1, 0, 1]>, <105, 4, 19, 15, 7, 0, 0, [1, 1, 0, 1]>, <106, 5, 20, 15, 7, 0, 0, [1, 1, 0, 1]>, <107, 6, 21, 15, 7, 0, 0, [1, 1, 0, 1]>, <108, 11, 26, 15, 7, 0, 0, [1, 1, 0, 1]>, <109, 12, 27, 15, 7, 0, 0, [1, 1, 0, 1]>, <110, 13, 28, 15, 7, 0, 0, [1, 1, 0, 1]>, <111, 14, 29, 15, 7, 0, 0, [1, 1, 0, 1]>, <112, 15, 30, 15, 7, 0, 0, [1, 1, 0, 1]>, <113, 16, 31, 15, 7, 0, 0, [1, 1, 0, 1]>, <114, 17, 32, 15, 7, 0, 0, [1, 1, 0, 1]>, <115, 18, 33, 15, 7, 0, 0, [1, 1, 0, 1]>, <116, 19, 34, 15, 7, 0, 0, [1, 1, 0, 1]>, <117, 20, 35, 15, 7, 0, 0, [1, 1, 0, 1]>};
